c read Graph
c width = 3
c time = 3 ms
c width = 1
c time = 9 ms
c width = 1
c time = 4891 ms
s td 27 2 33
b 1 10 11
b 2 1 10
b 3 2 12
b 4 2 17
b 5 3
b 6 22 23
b 7 4 22
b 8 5 13
b 9 5 29
b 10 5 30
b 11 6
b 12 7
b 13 32 33
b 14 8 33
b 15 9
b 16 14
b 17 15
b 18 16
b 19 18
b 20 19
b 21 20
b 22 21
b 23 24 25
b 24 26
b 25 27
b 26 28
b 27 31
1 2
1 3
1 5
1 6
1 8
1 11
1 12
1 13
1 15
1 16
1 17
1 18
1 19
1 20
1 21
1 22
1 23
1 24
1 25
1 26
1 27
3 4
6 7
8 9
8 10
13 14
